
Gurobi 9.1.1 (linux64) logging started Wed Dec  1 07:06:23 2021

Changed value of parameter LogFile to /home/aniket/python_scripts/Plasmids-Optimization/exp/2021-06-14__iterative_MILP_edge_novelty/output/sample_63/1.1.1/nplasmids_1/MILP/m.log
   Prev:   Default: 
Changed value of parameter TimeLimit to 240.0
   Prev: inf  Min: 0.0  Max: inf  Default: inf
Changed value of parameter MIPGap to 0.05
   Prev: 0.0001  Min: 0.0  Max: inf  Default: 0.0001
Gurobi Optimizer version 9.1.1 build v9.1.1rc0 (linux64)
Thread count: 2 physical cores, 4 logical processors, using up to 4 threads
Optimize a model with 14687 rows, 4945 columns and 39511 nonzeros
Model fingerprint: 0x96fbca61
Variable types: 1291 continuous, 3654 integer (3396 binary)
Coefficient statistics:
  Matrix range     [1e-02, 8e+05]
  Objective range  [5e-03, 1e+00]
  Bounds range     [1e+00, 1e+00]
  RHS range        [1e+00, 2e+05]
Presolve removed 12681 rows and 2473 columns
Presolve time: 0.06s
Presolved: 2006 rows, 2472 columns, 12207 nonzeros
Variable types: 489 continuous, 1983 integer (1983 binary)
Found heuristic solution: objective -0.8478465

Root relaxation: objective -8.098029e+00, 1449 iterations, 0.02 seconds

    Nodes    |    Current Node    |     Objective Bounds      |     Work
 Expl Unexpl |  Obj  Depth IntInf | Incumbent    BestBd   Gap | It/Node Time

     0     0   -8.09803    0   38   -0.84785   -8.09803   855%     -    0s
H    0     0                      -1.0000000   -8.09803   710%     -    0s
     0     0   -8.09803    0   40   -1.00000   -8.09803   710%     -    0s
H    0     0                      -7.2096372   -8.09803  12.3%     -    0s
     0     0   -8.09803    0   37   -7.20964   -8.09803  12.3%     -    0s
     0     0   -8.09803    0   41   -7.20964   -8.09803  12.3%     -    0s
     0     0   -8.09803    0   40   -7.20964   -8.09803  12.3%     -    0s
     0     0   -8.09803    0   41   -7.20964   -8.09803  12.3%     -    0s
     0     0   -8.09803    0   48   -7.20964   -8.09803  12.3%     -    0s
     0     0   -8.09803    0   40   -7.20964   -8.09803  12.3%     -    0s
     0     0   -8.09803    0   40   -7.20964   -8.09803  12.3%     -    0s
     0     2   -8.09803    0   40   -7.20964   -8.09803  12.3%     -    0s

Cutting planes:
  Implied bound: 20
  Flow cover: 48
  RLT: 33

Explored 438 nodes (15921 simplex iterations) in 1.81 seconds
Thread count was 4 (of 4 available processors)

Solution count 3: -7.20964 -1 -0.847846 

Optimal solution found (tolerance 5.00e-02)
Best objective -7.209637243702e+00, best bound -7.569918914358e+00, gap 4.9972%
Gurobi Optimizer version 9.1.1 build v9.1.1rc0 (linux64)
Thread count: 2 physical cores, 4 logical processors, using up to 4 threads
Optimize a model with 14688 rows, 4945 columns and 39515 nonzeros
Model fingerprint: 0x8f7ad9d9
Variable types: 1291 continuous, 3654 integer (3396 binary)
Coefficient statistics:
  Matrix range     [1e-02, 8e+05]
  Objective range  [5e-03, 1e+00]
  Bounds range     [1e+00, 1e+00]
  RHS range        [1e+00, 2e+05]

MIP start from previous solve did not produce a new incumbent solution
MIP start from previous solve violates constraint circular by 1.000000000

Presolve removed 12681 rows and 2473 columns
Presolve time: 0.07s
Presolved: 2007 rows, 2472 columns, 12212 nonzeros
Variable types: 489 continuous, 1983 integer (1983 binary)
Found heuristic solution: objective -0.8478465

Root relaxation: objective -8.098029e+00, 1449 iterations, 0.03 seconds

    Nodes    |    Current Node    |     Objective Bounds      |     Work
 Expl Unexpl |  Obj  Depth IntInf | Incumbent    BestBd   Gap | It/Node Time

     0     0   -8.09803    0   40   -0.84785   -8.09803   855%     -    0s
H    0     0                      -1.0000000   -8.09803   710%     -    0s
     0     0   -8.09803    0   72   -1.00000   -8.09803   710%     -    0s
H    0     0                      -7.2096330   -8.09803  12.3%     -    0s
     0     0   -8.09803    0   40   -7.20963   -8.09803  12.3%     -    0s
H    0     0                      -7.2096335   -8.09803  12.3%     -    0s
     0     0   -8.09803    0   38   -7.20963   -8.09803  12.3%     -    0s
     0     0   -8.09803    0   39   -7.20963   -8.09803  12.3%     -    0s
     0     0   -8.09803    0   36   -7.20963   -8.09803  12.3%     -    0s
     0     0   -8.09803    0   44   -7.20963   -8.09803  12.3%     -    0s
     0     0   -8.09803    0   41   -7.20963   -8.09803  12.3%     -    0s
H    0     0                      -7.2096342   -8.09803  12.3%     -    0s
     0     2   -8.09803    0   39   -7.20963   -8.09803  12.3%     -    0s
H   29    22                      -7.2096358   -7.98722  10.8%  77.5    0s
H  508   165                      -7.2096361   -7.84256  8.78%  12.7    2s
H  736   228                      -7.2096369   -7.79651  8.14%  12.3    2s
  2271   452   -7.37689   11   26   -7.20964   -7.63128  5.85%  10.7    5s

Cutting planes:
  Gomory: 10
  Cover: 1
  Implied bound: 27
  Flow cover: 26
  Inf proof: 1
  RLT: 39

Explored 3218 nodes (39834 simplex iterations) in 6.73 seconds
Thread count was 4 (of 4 available processors)

Solution count 7: -7.20964 -7.20964 -7.20963 ... -0.847846

Optimal solution found (tolerance 5.00e-02)
Best objective -7.209636885994e+00, best bound -7.568592553761e+00, gap 4.9788%
Gurobi Optimizer version 9.1.1 build v9.1.1rc0 (linux64)
Thread count: 2 physical cores, 4 logical processors, using up to 4 threads
Optimize a model with 14689 rows, 4945 columns and 39519 nonzeros
Model fingerprint: 0x57412090
Variable types: 1291 continuous, 3654 integer (3396 binary)
Coefficient statistics:
  Matrix range     [1e-02, 8e+05]
  Objective range  [5e-03, 1e+00]
  Bounds range     [1e+00, 1e+00]
  RHS range        [1e+00, 2e+05]

MIP start from previous solve did not produce a new incumbent solution
MIP start from previous solve violates constraint circular by 1.000000000

Presolve removed 12681 rows and 2473 columns
Presolve time: 0.07s
Presolved: 2008 rows, 2472 columns, 12217 nonzeros
Variable types: 489 continuous, 1983 integer (1983 binary)
Found heuristic solution: objective -0.8478465

Root relaxation: objective -8.098029e+00, 1449 iterations, 0.03 seconds

    Nodes    |    Current Node    |     Objective Bounds      |     Work
 Expl Unexpl |  Obj  Depth IntInf | Incumbent    BestBd   Gap | It/Node Time

     0     0   -8.09803    0   39   -0.84785   -8.09803   855%     -    0s
H    0     0                      -1.0000000   -8.09803   710%     -    0s
     0     0   -8.09803    0   45   -1.00000   -8.09803   710%     -    0s
H    0     0                      -7.2096378   -8.09803  12.3%     -    0s
     0     0   -8.09803    0   38   -7.20964   -8.09803  12.3%     -    0s
     0     0   -8.09803    0   42   -7.20964   -8.09803  12.3%     -    0s
     0     0   -8.09803    0   40   -7.20964   -8.09803  12.3%     -    0s
     0     0   -8.09803    0   35   -7.20964   -8.09803  12.3%     -    0s
     0     0   -8.09803    0   38   -7.20964   -8.09803  12.3%     -    0s
     0     0   -8.09803    0   56   -7.20964   -8.09803  12.3%     -    0s
     0     0   -8.09803    0   40   -7.20964   -8.09803  12.3%     -    0s
     0     0   -8.09803    0   40   -7.20964   -8.09803  12.3%     -    0s
     0     2   -8.09803    0   40   -7.20964   -8.09803  12.3%     -    0s

Cutting planes:
  Flow cover: 6
  RLT: 13

Explored 1690 nodes (31618 simplex iterations) in 4.13 seconds
Thread count was 4 (of 4 available processors)

Solution count 3: -7.20964 -1 -0.847846 

Optimal solution found (tolerance 5.00e-02)
Best objective -7.209637795903e+00, best bound -7.537537855937e+00, gap 4.5481%
Gurobi Optimizer version 9.1.1 build v9.1.1rc0 (linux64)
Thread count: 2 physical cores, 4 logical processors, using up to 4 threads
Optimize a model with 14690 rows, 4945 columns and 39523 nonzeros
Model fingerprint: 0x14fdb826
Variable types: 1291 continuous, 3654 integer (3396 binary)
Coefficient statistics:
  Matrix range     [1e-02, 8e+05]
  Objective range  [5e-03, 1e+00]
  Bounds range     [1e+00, 1e+00]
  RHS range        [1e+00, 2e+05]

MIP start from previous solve did not produce a new incumbent solution
MIP start from previous solve violates constraint circular by 1.000000000

Presolve removed 12681 rows and 2473 columns
Presolve time: 0.07s
Presolved: 2009 rows, 2472 columns, 12222 nonzeros
Variable types: 489 continuous, 1983 integer (1983 binary)
Found heuristic solution: objective -0.8478465

Root relaxation: objective -8.098029e+00, 1449 iterations, 0.03 seconds

    Nodes    |    Current Node    |     Objective Bounds      |     Work
 Expl Unexpl |  Obj  Depth IntInf | Incumbent    BestBd   Gap | It/Node Time

     0     0   -8.09803    0   40   -0.84785   -8.09803   855%     -    0s
H    0     0                      -1.0000000   -8.09803   710%     -    0s
     0     0   -8.09803    0   72   -1.00000   -8.09803   710%     -    0s
H    0     0                      -7.2096360   -8.09803  12.3%     -    0s
     0     0   -8.09803    0   44   -7.20964   -8.09803  12.3%     -    0s
     0     0   -8.09803    0   42   -7.20964   -8.09803  12.3%     -    0s
     0     0   -8.09803    0   41   -7.20964   -8.09803  12.3%     -    0s
     0     0   -8.09803    0   39   -7.20964   -8.09803  12.3%     -    0s
     0     0   -8.09803    0   39   -7.20964   -8.09803  12.3%     -    0s
     0     2   -8.09803    0   38   -7.20964   -8.09803  12.3%     -    0s
H  494   225                      -7.2096362   -7.92628  9.94%  29.0    2s

Cutting planes:
  Gomory: 2
  Implied bound: 13
  Flow cover: 3
  RLT: 18

Explored 1508 nodes (30563 simplex iterations) in 4.29 seconds
Thread count was 4 (of 4 available processors)

Solution count 5: -7.20964 -7.20964 -7.20964 ... -0.847846

Optimal solution found (tolerance 5.00e-02)
Best objective -7.209636214970e+00, best bound -7.546494894629e+00, gap 4.6723%

Gurobi 9.1.1 (linux64) logging started Wed Dec  1 07:06:40 2021

Changed value of parameter LogFile to /home/aniket/python_scripts/Plasmids-Optimization/exp/2021-06-14__iterative_MILP_edge_novelty/output/sample_63/1.1.1/nplasmids_1/MILP/m.log
   Prev:   Default: 
Changed value of parameter TimeLimit to 240.0
   Prev: inf  Min: 0.0  Max: inf  Default: inf
Changed value of parameter MIPGap to 0.05
   Prev: 0.0001  Min: 0.0  Max: inf  Default: 0.0001
Gurobi Optimizer version 9.1.1 build v9.1.1rc0 (linux64)
Thread count: 2 physical cores, 4 logical processors, using up to 4 threads
Optimize a model with 14103 rows, 4747 columns and 37887 nonzeros
Model fingerprint: 0x82ae4aa3
Variable types: 1241 continuous, 3506 integer (3258 binary)
Coefficient statistics:
  Matrix range     [1e-02, 8e+05]
  Objective range  [5e-03, 1e+00]
  Bounds range     [1e+00, 1e+00]
  RHS range        [1e+00, 2e+05]
Presolve removed 12183 rows and 2383 columns
Presolve time: 0.06s
Presolved: 1920 rows, 2364 columns, 11585 nonzeros
Variable types: 469 continuous, 1895 integer (1895 binary)
Found heuristic solution: objective -0.8478465

Root relaxation: objective -7.876389e+00, 1434 iterations, 0.03 seconds

    Nodes    |    Current Node    |     Objective Bounds      |     Work
 Expl Unexpl |  Obj  Depth IntInf | Incumbent    BestBd   Gap | It/Node Time

     0     0   -7.87639    0   30   -0.84785   -7.87639   829%     -    0s
H    0     0                      -1.0000000   -7.87639   688%     -    0s
     0     0   -7.74469    0   96   -1.00000   -7.74469   674%     -    0s
H    0     0                      -7.2096333   -7.74469  7.42%     -    0s
     0     0   -7.53586    0   76   -7.20963   -7.53586  4.52%     -    0s

Cutting planes:
  Gomory: 4
  MIR: 1
  Flow cover: 69
  Zero half: 1
  RLT: 71
  Relax-and-lift: 22

Explored 1 nodes (3557 simplex iterations) in 0.35 seconds
Thread count was 4 (of 4 available processors)

Solution count 3: -7.20963 -1 -0.847846 

Optimal solution found (tolerance 5.00e-02)
Best objective -7.209633301804e+00, best bound -7.535855980503e+00, gap 4.5248%
Gurobi Optimizer version 9.1.1 build v9.1.1rc0 (linux64)
Thread count: 2 physical cores, 4 logical processors, using up to 4 threads
Optimize a model with 14104 rows, 4747 columns and 37891 nonzeros
Model fingerprint: 0x11c4e0db
Variable types: 1241 continuous, 3506 integer (3258 binary)
Coefficient statistics:
  Matrix range     [1e-02, 8e+05]
  Objective range  [5e-03, 1e+00]
  Bounds range     [1e+00, 1e+00]
  RHS range        [1e+00, 2e+05]

MIP start from previous solve did not produce a new incumbent solution
MIP start from previous solve violates constraint circular by 1.000000000

Presolve removed 12183 rows and 2383 columns
Presolve time: 0.06s
Presolved: 1921 rows, 2364 columns, 11590 nonzeros
Variable types: 469 continuous, 1895 integer (1895 binary)
Found heuristic solution: objective -0.8478465

Root relaxation: objective -7.876389e+00, 1642 iterations, 0.03 seconds

    Nodes    |    Current Node    |     Objective Bounds      |     Work
 Expl Unexpl |  Obj  Depth IntInf | Incumbent    BestBd   Gap | It/Node Time

     0     0   -7.87639    0   30   -0.84785   -7.87639   829%     -    0s
H    0     0                      -1.0000000   -7.87639   688%     -    0s
     0     0   -7.74436    0   94   -1.00000   -7.74436   674%     -    0s
H    0     0                      -7.2096330   -7.74436  7.42%     -    0s
     0     0   -7.51977    0   67   -7.20963   -7.51977  4.30%     -    0s

Cutting planes:
  Gomory: 3
  MIR: 1
  Flow cover: 70
  Zero half: 1
  RLT: 65
  Relax-and-lift: 23

Explored 1 nodes (3646 simplex iterations) in 0.33 seconds
Thread count was 4 (of 4 available processors)

Solution count 3: -7.20963 -1 -0.847846 

Optimal solution found (tolerance 5.00e-02)
Best objective -7.209632955060e+00, best bound -7.519770799886e+00, gap 4.3017%
Gurobi Optimizer version 9.1.1 build v9.1.1rc0 (linux64)
Thread count: 2 physical cores, 4 logical processors, using up to 4 threads
Optimize a model with 14105 rows, 4747 columns and 37894 nonzeros
Model fingerprint: 0x50ad24e2
Variable types: 1241 continuous, 3506 integer (3258 binary)
Coefficient statistics:
  Matrix range     [1e-02, 8e+05]
  Objective range  [5e-03, 1e+00]
  Bounds range     [1e+00, 1e+00]
  RHS range        [1e+00, 2e+05]

MIP start from previous solve did not produce a new incumbent solution
MIP start from previous solve violates constraint circular by 1.000000000

Presolve removed 12183 rows and 2383 columns
Presolve time: 0.06s
Presolved: 1922 rows, 2364 columns, 11615 nonzeros
Variable types: 469 continuous, 1895 integer (1895 binary)
Found heuristic solution: objective -0.8478465

Root relaxation: objective -7.876389e+00, 1429 iterations, 0.02 seconds

    Nodes    |    Current Node    |     Objective Bounds      |     Work
 Expl Unexpl |  Obj  Depth IntInf | Incumbent    BestBd   Gap | It/Node Time

     0     0   -7.87639    0   30   -0.84785   -7.87639   829%     -    0s
H    0     0                      -1.0000000   -7.87639   688%     -    0s
     0     0   -7.74436    0   95   -1.00000   -7.74436   674%     -    0s
H    0     0                      -7.2096333   -7.74436  7.42%     -    0s
     0     0   -7.54541    0   66   -7.20963   -7.54541  4.66%     -    0s

Cutting planes:
  Gomory: 3
  MIR: 1
  Flow cover: 69
  RLT: 63
  Relax-and-lift: 23

Explored 1 nodes (3388 simplex iterations) in 0.31 seconds
Thread count was 4 (of 4 available processors)

Solution count 3: -7.20963 -1 -0.847846 

Optimal solution found (tolerance 5.00e-02)
Best objective -7.209633273800e+00, best bound -7.545410819742e+00, gap 4.6573%
Gurobi Optimizer version 9.1.1 build v9.1.1rc0 (linux64)
Thread count: 2 physical cores, 4 logical processors, using up to 4 threads
Optimize a model with 14106 rows, 4747 columns and 37901 nonzeros
Model fingerprint: 0x4530d49a
Variable types: 1241 continuous, 3506 integer (3258 binary)
Coefficient statistics:
  Matrix range     [1e-02, 8e+05]
  Objective range  [5e-03, 1e+00]
  Bounds range     [1e+00, 1e+00]
  RHS range        [1e+00, 2e+05]

MIP start from previous solve did not produce a new incumbent solution
MIP start from previous solve violates constraint circular by 1.000000000

Presolve removed 12183 rows and 2383 columns
Presolve time: 0.06s
Presolved: 1923 rows, 2364 columns, 11644 nonzeros
Variable types: 469 continuous, 1895 integer (1895 binary)
Found heuristic solution: objective -0.8478465

Root relaxation: objective -7.876389e+00, 1622 iterations, 0.03 seconds

    Nodes    |    Current Node    |     Objective Bounds      |     Work
 Expl Unexpl |  Obj  Depth IntInf | Incumbent    BestBd   Gap | It/Node Time

     0     0   -7.87639    0   31   -0.84785   -7.87639   829%     -    0s
H    0     0                      -1.0000000   -7.87639   688%     -    0s
     0     0   -7.74432    0   94   -1.00000   -7.74432   674%     -    0s
H    0     0                      -7.2096330   -7.74432  7.42%     -    0s
     0     0   -7.53180    0   68   -7.20963   -7.53180  4.47%     -    0s

Cutting planes:
  Gomory: 2
  Flow cover: 74
  RLT: 63
  Relax-and-lift: 23

Explored 1 nodes (3773 simplex iterations) in 0.35 seconds
Thread count was 4 (of 4 available processors)

Solution count 3: -7.20963 -1 -0.847846 

Optimal solution found (tolerance 5.00e-02)
Best objective -7.209632955060e+00, best bound -7.531796687538e+00, gap 4.4685%

Gurobi 9.1.1 (linux64) logging started Wed Dec  1 07:06:42 2021

Changed value of parameter LogFile to /home/aniket/python_scripts/Plasmids-Optimization/exp/2021-06-14__iterative_MILP_edge_novelty/output/sample_63/1.1.1/nplasmids_1/MILP/m.log
   Prev:   Default: 
Changed value of parameter TimeLimit to 240.0
   Prev: inf  Min: 0.0  Max: inf  Default: inf
Changed value of parameter MIPGap to 0.05
   Prev: 0.0001  Min: 0.0  Max: inf  Default: 0.0001
Gurobi Optimizer version 9.1.1 build v9.1.1rc0 (linux64)
Thread count: 2 physical cores, 4 logical processors, using up to 4 threads
Optimize a model with 13645 rows, 4591 columns and 36809 nonzeros
Model fingerprint: 0x46c81e39
Variable types: 1191 continuous, 3400 integer (3162 binary)
Coefficient statistics:
  Matrix range     [1e-02, 8e+05]
  Objective range  [5e-03, 1e+00]
  Bounds range     [1e+00, 1e+00]
  RHS range        [1e+00, 2e+05]
Presolve removed 11815 rows and 2293 columns
Presolve time: 0.06s
Presolved: 1830 rows, 2298 columns, 11222 nonzeros
Variable types: 449 continuous, 1849 integer (1849 binary)
Found heuristic solution: objective -0.0804943

Root relaxation: objective -1.648881e+00, 938 iterations, 0.01 seconds

    Nodes    |    Current Node    |     Objective Bounds      |     Work
 Expl Unexpl |  Obj  Depth IntInf | Incumbent    BestBd   Gap | It/Node Time

     0     0   -1.64888    0    4   -0.08049   -1.64888  1948%     -    0s
H    0     0                      -0.9179389   -1.64888  79.6%     -    0s
H    0     0                      -1.5477510   -1.64888  6.53%     -    0s
     0     0   -1.61517    0    4   -1.54775   -1.61517  4.36%     -    0s

Cutting planes:
  Gomory: 1
  Implied bound: 1
  MIR: 2
  Flow cover: 4
  RLT: 3

Explored 1 nodes (942 simplex iterations) in 0.11 seconds
Thread count was 4 (of 4 available processors)

Solution count 3: -1.54775 -0.917939 -0.0804943 

Optimal solution found (tolerance 5.00e-02)
Best objective -1.547751001267e+00, best bound -1.615170757311e+00, gap 4.3560%

Gurobi 9.1.1 (linux64) logging started Wed Dec  1 07:06:42 2021

Changed value of parameter LogFile to /home/aniket/python_scripts/Plasmids-Optimization/exp/2021-06-14__iterative_MILP_edge_novelty/output/sample_63/1.1.1/nplasmids_1/MILP/m.log
   Prev:   Default: 
Changed value of parameter TimeLimit to 240.0
   Prev: inf  Min: 0.0  Max: inf  Default: inf
Changed value of parameter MIPGap to 0.05
   Prev: 0.0001  Min: 0.0  Max: inf  Default: 0.0001
Gurobi Optimizer version 9.1.1 build v9.1.1rc0 (linux64)
Thread count: 2 physical cores, 4 logical processors, using up to 4 threads
Optimize a model with 13569 rows, 4565 columns and 36661 nonzeros
Model fingerprint: 0xeaab1f50
Variable types: 1181 continuous, 3384 integer (3148 binary)
Coefficient statistics:
  Matrix range     [1e-02, 8e+05]
  Objective range  [5e-03, 1e+00]
  Bounds range     [1e+00, 1e+00]
  RHS range        [1e+00, 2e+05]
Presolve removed 11754 rows and 2275 columns
Presolve time: 0.05s
Presolved: 1815 rows, 2290 columns, 11173 nonzeros
Variable types: 445 continuous, 1845 integer (1845 binary)
Found heuristic solution: objective -0.0804943

Root relaxation: objective -1.412804e+00, 1623 iterations, 0.03 seconds

    Nodes    |    Current Node    |     Objective Bounds      |     Work
 Expl Unexpl |  Obj  Depth IntInf | Incumbent    BestBd   Gap | It/Node Time

     0     0   -1.41280    0    8   -0.08049   -1.41280  1655%     -    0s
H    0     0                      -1.0000000   -1.41280  41.3%     -    0s
H    0     0                      -1.2432426   -1.41280  13.6%     -    0s
     0     0   -1.41280    0   12   -1.24324   -1.41280  13.6%     -    0s
     0     0   -1.41280    0   10   -1.24324   -1.41280  13.6%     -    0s
     0     0   -1.41280    0    9   -1.24324   -1.41280  13.6%     -    0s
     0     0   -1.41280    0    8   -1.24324   -1.41280  13.6%     -    0s
     0     0   -1.41280    0    8   -1.24324   -1.41280  13.6%     -    0s
H    0     0                      -1.2432427   -1.41280  13.6%     -    0s
     0     0   -1.41280    0    8   -1.24324   -1.41280  13.6%     -    0s
     0     0   -1.41280    0    8   -1.24324   -1.41280  13.6%     -    0s
     0     0   -1.41280    0    8   -1.24324   -1.41280  13.6%     -    0s
     0     0   -1.41280    0   12   -1.24324   -1.41280  13.6%     -    0s
     0     0   -1.37263    0   15   -1.24324   -1.37263  10.4%     -    0s
     0     0   -1.28844    0    4   -1.24324   -1.28844  3.64%     -    0s

Cutting planes:
  Gomory: 2
  Flow cover: 1
  RLT: 5

Explored 1 nodes (4567 simplex iterations) in 0.51 seconds
Thread count was 4 (of 4 available processors)

Solution count 4: -1.24324 -1.24324 -1 -0.0804943 

Optimal solution found (tolerance 5.00e-02)
Best objective -1.243242732801e+00, best bound -1.288435740909e+00, gap 3.6351%

Gurobi 9.1.1 (linux64) logging started Wed Dec  1 07:06:43 2021

Changed value of parameter LogFile to /home/aniket/python_scripts/Plasmids-Optimization/exp/2021-06-14__iterative_MILP_edge_novelty/output/sample_63/1.1.1/nplasmids_1/MILP/m.log
   Prev:   Default: 
Changed value of parameter TimeLimit to 240.0
   Prev: inf  Min: 0.0  Max: inf  Default: inf
Changed value of parameter MIPGap to 0.05
   Prev: 0.0001  Min: 0.0  Max: inf  Default: 0.0001
Gurobi Optimizer version 9.1.1 build v9.1.1rc0 (linux64)
Thread count: 2 physical cores, 4 logical processors, using up to 4 threads
Optimize a model with 13413 rows, 4512 columns and 36257 nonzeros
Model fingerprint: 0x46ae871f
Variable types: 1166 continuous, 3346 integer (3113 binary)
Coefficient statistics:
  Matrix range     [1e-02, 8e+05]
  Objective range  [5e-03, 1e+00]
  Bounds range     [1e+00, 1e+00]
  RHS range        [1e+00, 2e+05]
Presolve removed 11626 rows and 2246 columns
Presolve time: 0.06s
Presolved: 1787 rows, 2266 columns, 11034 nonzeros
Variable types: 439 continuous, 1827 integer (1827 binary)
Found heuristic solution: objective -0.0804943

Root relaxation: objective -1.394927e+00, 1143 iterations, 0.02 seconds

    Nodes    |    Current Node    |     Objective Bounds      |     Work
 Expl Unexpl |  Obj  Depth IntInf | Incumbent    BestBd   Gap | It/Node Time

     0     0   -1.39493    0    6   -0.08049   -1.39493  1633%     -    0s
H    0     0                      -1.0000000   -1.39493  39.5%     -    0s
H    0     0                      -1.2432426   -1.39493  12.2%     -    0s
     0     0   -1.30668    0    8   -1.24324   -1.30668  5.10%     -    0s
     0     0   -1.30668    0    3   -1.24324   -1.30668  5.10%     -    0s
     0     0   -1.27979    0    5   -1.24324   -1.27979  2.94%     -    0s

Cutting planes:
  Gomory: 1
  Cover: 1
  Implied bound: 1
  Flow cover: 6
  RLT: 6

Explored 1 nodes (1191 simplex iterations) in 0.21 seconds
Thread count was 4 (of 4 available processors)

Solution count 3: -1.24324 -1 -0.0804943 

Optimal solution found (tolerance 5.00e-02)
Best objective -1.243242640132e+00, best bound -1.279792082821e+00, gap 2.9398%

Gurobi 9.1.1 (linux64) logging started Wed Dec  1 07:06:43 2021

Changed value of parameter LogFile to /home/aniket/python_scripts/Plasmids-Optimization/exp/2021-06-14__iterative_MILP_edge_novelty/output/sample_63/1.1.1/nplasmids_1/MILP/m.log
   Prev:   Default: 
Changed value of parameter TimeLimit to 240.0
   Prev: inf  Min: 0.0  Max: inf  Default: inf
Changed value of parameter MIPGap to 0.05
   Prev: 0.0001  Min: 0.0  Max: inf  Default: 0.0001
Gurobi Optimizer version 9.1.1 build v9.1.1rc0 (linux64)
Thread count: 2 physical cores, 4 logical processors, using up to 4 threads
Optimize a model with 13269 rows, 4463 columns and 35905 nonzeros
Model fingerprint: 0x7ecb5fec
Variable types: 1151 continuous, 3312 integer (3082 binary)
Coefficient statistics:
  Matrix range     [1e-02, 8e+05]
  Objective range  [5e-03, 1e+00]
  Bounds range     [1e+00, 1e+00]
  RHS range        [1e+00, 2e+05]
Presolve removed 11510 rows and 2217 columns
Presolve time: 0.06s
Presolved: 1759 rows, 2246 columns, 10904 nonzeros
Variable types: 433 continuous, 1813 integer (1813 binary)
Found heuristic solution: objective -0.9179389

Root relaxation: objective -1.000000e+00, 602 iterations, 0.02 seconds

    Nodes    |    Current Node    |     Objective Bounds      |     Work
 Expl Unexpl |  Obj  Depth IntInf | Incumbent    BestBd   Gap | It/Node Time

*    0     0               0      -1.0000000   -1.00000  0.00%     -    0s

Explored 0 nodes (602 simplex iterations) in 0.09 seconds
Thread count was 4 (of 4 available processors)

Solution count 2: -1 -0.917939 

Optimal solution found (tolerance 5.00e-02)
Best objective -1.000000000000e+00, best bound -1.000000000000e+00, gap 0.0000%

Gurobi 9.1.1 (linux64) logging started Wed Dec  1 07:06:44 2021

Changed value of parameter LogFile to /home/aniket/python_scripts/Plasmids-Optimization/exp/2021-06-14__iterative_MILP_edge_novelty/output/sample_63/1.1.1/nplasmids_1/MILP/m.log
   Prev:   Default: 
Changed value of parameter TimeLimit to 240.0
   Prev: inf  Min: 0.0  Max: inf  Default: inf
Changed value of parameter MIPGap to 0.05
   Prev: 0.0001  Min: 0.0  Max: inf  Default: 0.0001
Gurobi Optimizer version 9.1.1 build v9.1.1rc0 (linux64)
Thread count: 2 physical cores, 4 logical processors, using up to 4 threads
Optimize a model with 13222 rows, 4447 columns and 35792 nonzeros
Model fingerprint: 0x76dc04b4
Variable types: 1146 continuous, 3301 integer (3072 binary)
Coefficient statistics:
  Matrix range     [1e-02, 8e+05]
  Objective range  [5e-03, 1e+00]
  Bounds range     [1e+00, 1e+00]
  RHS range        [1e+00, 2e+05]
Presolve removed 11472 rows and 2206 columns
Presolve time: 0.05s
Presolved: 1750 rows, 2241 columns, 10875 nonzeros
Variable types: 431 continuous, 1810 integer (1810 binary)
Found heuristic solution: objective -0.9179389

Root relaxation: objective -1.000000e+00, 661 iterations, 0.02 seconds

    Nodes    |    Current Node    |     Objective Bounds      |     Work
 Expl Unexpl |  Obj  Depth IntInf | Incumbent    BestBd   Gap | It/Node Time

*    0     0               0      -1.0000000   -1.00000  0.00%     -    0s

Explored 0 nodes (661 simplex iterations) in 0.09 seconds
Thread count was 4 (of 4 available processors)

Solution count 2: -1 -0.917939 

Optimal solution found (tolerance 5.00e-02)
Best objective -1.000000000000e+00, best bound -1.000000000000e+00, gap 0.0000%

Gurobi 9.1.1 (linux64) logging started Wed Dec  1 07:06:44 2021

Changed value of parameter LogFile to /home/aniket/python_scripts/Plasmids-Optimization/exp/2021-06-14__iterative_MILP_edge_novelty/output/sample_63/1.1.1/nplasmids_1/MILP/m.log
   Prev:   Default: 
Changed value of parameter TimeLimit to 240.0
   Prev: inf  Min: 0.0  Max: inf  Default: inf
Changed value of parameter MIPGap to 0.05
   Prev: 0.0001  Min: 0.0  Max: inf  Default: 0.0001
Gurobi Optimizer version 9.1.1 build v9.1.1rc0 (linux64)
Thread count: 2 physical cores, 4 logical processors, using up to 4 threads
Optimize a model with 13187 rows, 4435 columns and 35731 nonzeros
Model fingerprint: 0xb3702d68
Variable types: 1141 continuous, 3294 integer (3066 binary)
Coefficient statistics:
  Matrix range     [1e-02, 8e+05]
  Objective range  [5e-03, 1e+00]
  Bounds range     [1e+00, 1e+00]
  RHS range        [1e+00, 2e+05]
Presolve removed 11448 rows and 2199 columns
Presolve time: 0.05s
Presolved: 1739 rows, 2236 columns, 10840 nonzeros
Variable types: 428 continuous, 1808 integer (1808 binary)
Found heuristic solution: objective -0.7282443
Found heuristic solution: objective -0.9179389

Explored 0 nodes (0 simplex iterations) in 0.07 seconds
Thread count was 4 (of 4 available processors)

Solution count 2: -0.917939 -0.728244 

Optimal solution found (tolerance 5.00e-02)
Best objective -9.179389312977e-01, best bound -9.179389312977e-01, gap 0.0000%

Gurobi 9.1.1 (linux64) logging started Wed Dec  1 07:06:44 2021

Changed value of parameter LogFile to /home/aniket/python_scripts/Plasmids-Optimization/exp/2021-06-14__iterative_MILP_edge_novelty/output/sample_63/1.1.1/nplasmids_1/MILP/m.log
   Prev:   Default: 
Changed value of parameter TimeLimit to 240.0
   Prev: inf  Min: 0.0  Max: inf  Default: inf
Changed value of parameter MIPGap to 0.05
   Prev: 0.0001  Min: 0.0  Max: inf  Default: 0.0001
Gurobi Optimizer version 9.1.1 build v9.1.1rc0 (linux64)
Thread count: 2 physical cores, 4 logical processors, using up to 4 threads
Optimize a model with 13152 rows, 4423 columns and 35670 nonzeros
Model fingerprint: 0x9029c8f8
Variable types: 1136 continuous, 3287 integer (3060 binary)
Coefficient statistics:
  Matrix range     [1e-02, 8e+05]
  Objective range  [5e-03, 1e+00]
  Bounds range     [1e+00, 1e+00]
  RHS range        [1e+00, 2e+05]
Presolve removed 4949 rows and 693 columns
Presolve time: 0.00s

Explored 0 nodes (0 simplex iterations) in 0.01 seconds
Thread count was 1 (of 4 available processors)

Solution count 0

Model is infeasible
Best objective -, best bound -, gap -

Computing Irreducible Inconsistent Subsystem (IIS)...

           Constraints          |            Bounds           |  Runtime
      Min       Max     Guess   |   Min       Max     Guess   |
--------------------------------------------------------------------------
        0     10517         -         0      1363         -           0s
      456       456         -         0         0         -           1s

IIS computed: 456 constraints, 0 bounds
IIS runtime: 1.17 seconds
Warning: linear constraint 0 and linear constraint 1 have the same name "counted_length"
